NAME: tsp10_23
COMMENT: 10-tsp problem (Padberg/Rinaldi)
TYPE: TSP
DIMENSION: 10
EDGE_WEIGHT_TYPE : EUC_2D
NODE_COORD_SECTION
1 39 15
2 8 6
3 8 25
4 33 2
5 19 1
6 24 26
7 31 28
8 28 12
9 31 1
10 38 25
